c CNF file corresponding to a (partial) station packing problem.
p cnf 1566 229
1 2 3 4 5 6 7 8 9 10 11 12 13 14 0
-1 -2 0
-1 -3 0
-1 -4 0
-1 -5 0
-1 -6 0
-1 -7 0
-1 -8 0
-1 -9 0
-1 -10 0
-1 -11 0
-1 -12 0
-1 -13 0
-1 -14 0
-2 -3 0
-2 -4 0
-2 -5 0
-2 -6 0
-2 -7 0
-2 -8 0
-2 -9 0
-2 -10 0
-2 -11 0
-2 -12 0
-2 -13 0
-2 -14 0
-3 -4 0
-3 -5 0
-3 -6 0
-3 -7 0
-3 -8 0
-3 -9 0
-3 -10 0
-3 -11 0
-3 -12 0
-3 -13 0
-3 -14 0
-4 -5 0
-4 -6 0
-4 -7 0
-4 -8 0
-4 -9 0
-4 -10 0
-4 -11 0
-4 -12 0
-4 -13 0
-4 -14 0
-5 -6 0
-5 -7 0
-5 -8 0
-5 -9 0
-5 -10 0
-5 -11 0
-5 -12 0
-5 -13 0
-5 -14 0
-6 -7 0
-6 -8 0
-6 -9 0
-6 -10 0
-6 -11 0
-6 -12 0
-6 -13 0
-6 -14 0
-7 -8 0
-7 -9 0
-7 -10 0
-7 -11 0
-7 -12 0
-7 -13 0
-7 -14 0
-8 -9 0
-8 -10 0
-8 -11 0
-8 -12 0
-8 -13 0
-8 -14 0
-9 -10 0
-9 -11 0
-9 -12 0
-9 -13 0
-9 -14 0
-10 -11 0
-10 -12 0
-10 -13 0
-10 -14 0
-11 -12 0
-11 -13 0
-11 -14 0
-12 -13 0
-12 -14 0
-13 -14 0
1550 1551 1552 1553 1554 1555 1556 1557 1558 1559 1560 1561 1562 1563 1564 1565 1566 0
-1550 -1551 0
-1550 -1552 0
-1550 -1553 0
-1550 -1554 0
-1550 -1555 0
-1550 -1556 0
-1550 -1557 0
-1550 -1558 0
-1550 -1559 0
-1550 -1560 0
-1550 -1561 0
-1550 -1562 0
-1550 -1563 0
-1550 -1564 0
-1550 -1565 0
-1550 -1566 0
-1551 -1552 0
-1551 -1553 0
-1551 -1554 0
-1551 -1555 0
-1551 -1556 0
-1551 -1557 0
-1551 -1558 0
-1551 -1559 0
-1551 -1560 0
-1551 -1561 0
-1551 -1562 0
-1551 -1563 0
-1551 -1564 0
-1551 -1565 0
-1551 -1566 0
-1552 -1553 0
-1552 -1554 0
-1552 -1555 0
-1552 -1556 0
-1552 -1557 0
-1552 -1558 0
-1552 -1559 0
-1552 -1560 0
-1552 -1561 0
-1552 -1562 0
-1552 -1563 0
-1552 -1564 0
-1552 -1565 0
-1552 -1566 0
-1553 -1554 0
-1553 -1555 0
-1553 -1556 0
-1553 -1557 0
-1553 -1558 0
-1553 -1559 0
-1553 -1560 0
-1553 -1561 0
-1553 -1562 0
-1553 -1563 0
-1553 -1564 0
-1553 -1565 0
-1553 -1566 0
-1554 -1555 0
-1554 -1556 0
-1554 -1557 0
-1554 -1558 0
-1554 -1559 0
-1554 -1560 0
-1554 -1561 0
-1554 -1562 0
-1554 -1563 0
-1554 -1564 0
-1554 -1565 0
-1554 -1566 0
-1555 -1556 0
-1555 -1557 0
-1555 -1558 0
-1555 -1559 0
-1555 -1560 0
-1555 -1561 0
-1555 -1562 0
-1555 -1563 0
-1555 -1564 0
-1555 -1565 0
-1555 -1566 0
-1556 -1557 0
-1556 -1558 0
-1556 -1559 0
-1556 -1560 0
-1556 -1561 0
-1556 -1562 0
-1556 -1563 0
-1556 -1564 0
-1556 -1565 0
-1556 -1566 0
-1557 -1558 0
-1557 -1559 0
-1557 -1560 0
-1557 -1561 0
-1557 -1562 0
-1557 -1563 0
-1557 -1564 0
-1557 -1565 0
-1557 -1566 0
-1558 -1559 0
-1558 -1560 0
-1558 -1561 0
-1558 -1562 0
-1558 -1563 0
-1558 -1564 0
-1558 -1565 0
-1558 -1566 0
-1559 -1560 0
-1559 -1561 0
-1559 -1562 0
-1559 -1563 0
-1559 -1564 0
-1559 -1565 0
-1559 -1566 0
-1560 -1561 0
-1560 -1562 0
-1560 -1563 0
-1560 -1564 0
-1560 -1565 0
-1560 -1566 0
-1561 -1562 0
-1561 -1563 0
-1561 -1564 0
-1561 -1565 0
-1561 -1566 0
-1562 -1563 0
-1562 -1564 0
-1562 -1565 0
-1562 -1566 0
-1563 -1564 0
-1563 -1565 0
-1563 -1566 0
-1564 -1565 0
-1564 -1566 0
-1565 -1566 0
